757	757	767	757	757	757	757	757	757	757	757
757	757	767	757	757	757	757	757	757	757	757
757	757	767	757	757	767	757	757	757	757	757
757	757	767	757	757	767	757	767	757	767	757
767	767	767	757	767	767	767	767	767	767	767
767	767	767	767	767	767	767	767	767	767	767
767	767	767	767	767	767	767	767	767	767	767
767	767	767	767	767	767	767	767	767	767	767
767	767	767	814	767	767	767	767	767	767	767
767	767	767	818	767	767	767	767	767	767	767
767	767	796	829	767	767	767	767	767	767	767
767	796	806	829	767	767	767	767	767	796	767
796	796	814	857	767	767	767	767	767	796	767
796	806	818	857	767	767	767	796	767	796	767
814	806	829	857	767	767	767	796	796	796	767
814	814	857	857	814	767	796	814	796	806	767
818	814	857	857	818	806	806	818	806	806	767
829	818	857	857	818	814	806	829	806	806	796
857	829	857	857	829	829	818	829	818	814	806
857	829	857	895	857	857	857	857	829	857	806
857	857	857	895	857	857	857	857	829	857	806
857	857	857	895	857	857	857	901	857	857	814
895	857	901	901	857	857	857	901	857	895	829
895	895	901	910	857	857	895	910	901	895	829
895	895	910	910	895	895	901	910	910	895	910
3.12	3.56	3.28	3.84	2.12	1.76	2.24	3.28	2.88	3.48	2.32
3.12	3.56	3.28	3.84	2.12	1.76	2.24	3.28	2.88	3.48	2.32
3.12	3.56	3.28	3.84	2.12	1.76	2.24	3.28	2.88	3.48	2.32
3.12	3.56	3.28	3.84	2.12	1.76	2.24	3.28	2.88	3.48	2.32
3.12	3.56	3.28	3.84	2.12	1.76	2.24	3.28	2.88	3.48	2.32
3.12	3.56	3.28	3.84	2.12	1.76	2.24	3.28	2.88	3.48	2.32
3.12	3.56	3.28	3.84	2.12	1.76	2.24	3.28	2.88	3.48	2.32
3.12	3.56	3.28	3.84	2.12	1.76	2.24	3.28	2.88	3.48	2.32
3.12	3.56	3.28	6.92	2.12	1.76	2.24	3.28	2.88	3.48	2.32
3.12	3.56	3.28	6.92	2.12	1.76	2.24	3.28	2.88	3.48	2.32
3.12	3.56	6.76	6.8	2.12	1.76	2.24	3.28	2.88	3.48	2.32
3.12	5.44	6.76	6.8	2.12	1.76	2.24	3.28	2.88	5.32	2.32
6.2	5.44	7.48	4.76	2.12	1.76	2.24	3.28	2.88	5.32	2.32
6.2	5.44	7.48	4.76	2.12	1.76	2.24	5.96	2.88	5.32	2.32
6.96	5.44	7.68	4.76	2.12	1.76	2.24	5.96	6.12	5.32	2.32
6.96	6.2	4.28	4.76	8.36	1.76	7.16	6.64	6.12	5.32	2.32
6.96	6.2	4.28	4.76	8.36	7.88	7.16	6.64	6.12	5.32	2.32
6.88	6.2	4.28	4.76	8.36	8.8	7.16	6.8	6.12	5.32	6.32
4.8	6.12	4.28	4.76	8.44	8.72	8.04	6.8	6.96	6.24	6.32
4.8	6.12	4.28	6.8	3.72	3.4	4.04	5.4	6.96	5.32	6.32
4.8	5.4	4.28	6.8	3.72	3.4	4.04	5.4	6.96	5.32	6.32
4.8	5.4	4.28	6.8	3.72	3.4	4.04	6.64	5.04	5.32	7.2
6.88	5.4	7.52	7.04	3.72	3.4	4.04	6.64	5.04	6.08	7.16
6.88	6.12	7.52	7.04	3.72	3.4	8.08	6.64	7.12	6.08	7.16
6.88	6.12	7.52	7.04	8.44	8.72	8.2	6.64	7.12	6.08	7.44
0	previous	instance:	data/A-n33-k5.vrp							
1160	1160	1140	1156	1140	1140	1161	1144	1147	1140	1140
1163	1160	1156	1156	1141	1140	1162	1147	1163	1147	1141
1163	1163	1163	1156	1162	1144	1163	1156	1163	1155	1147
1163	1169	1163	1162	1163	1163	1163	1156	1163	1156	1163
1163	1169	1163	1163	1163	1163	1164	1160	1163	1160	1163
1167	1169	1167	1163	1167	1163	1167	1163	1163	1163	1163
1167	1170	1169	1163	1169	1163	1167	1163	1163	1167	1163
1169	1172	1169	1163	1169	1163	1167	1170	1167	1169	1167
1169	1174	1169	1167	1169	1167	1169	1170	1167	1169	1167
1170	1174	1170	1167	1169	1167	1169	1174	1169	1169	1167
1170	1174	1170	1169	1174	1169	1169	1174	1169	1169	1169
1179	1177	1170	1169	1180	1169	1169	1177	1169	1169	1169
1179	1179	1170	1177	1180	1170	1169	1177	1179	1170	1170
1179	1179	1172	1177	1180	1172	1169	1179	1179	1172	1170
1180	1179	1177	1179	1180	1179	1174	1179	1179	1177	1174
1180	1180	1177	1179	1180	1179	1177	1179	1179	1179	1177
1180	1180	1179	1179	1180	1179	1180	1187	1179	1179	1177
1180	1180	1179	1179	1182	1182	1180	1191	1180	1179	1179
1182	1180	1180	1179	1182	1191	1182	1194	1180	1180	1179
1182	1187	1182	1180	1194	1196	1182	1194	1180	1180	1180
1194	1194	1191	1180	1207	1196	1188	1194	1180	1180	1182
1194	1194	1214	1194	1215	1214	1194	1197	1182	1194	1182
1207	1194	1215	1201	1217	1215	1194	1203	1187	1194	1194
1227	1196	1227	1201	1227	1227	1194	1217	1188	1196	1194
1235	1203	1235	1235	1235	1235	1203	1227	1227	1227	1197
15.52	14.32	16.92	8.84	14.64	16.24	15.64	13.32	17.04	16.16	15.08
11.96	14.32	13.64	8.84	13.4	16.76	10.32	13.56	8.08	14.76	14.04
11.96	11.44	9.6	8.84	10.32	16.76	8.48	13.84	10.4	15.56	14.04
8.64	8.52	9.6	7.52	8.56	9.92	11.6	13.84	10.4	12.28	8.96
11.96	8.52	9.6	7.56	8.56	11.56	15.44	13.96	8.08	16.04	12.48
8.64	8.52	9.6	7.56	8.56	11.56	8.48	12.16	10.4	10.2	12.48
8.64	13.8	8.52	7.56	8.52	9.92	8.48	12.56	8.08	10.2	8.96
8.16	10.72	8.52	7.56	8.52	9.92	8.48	14.52	8.08	7.52	8.96
8.16	13.48	8.52	10.44	8.52	9.92	8.16	13.68	8.08	7.52	8.96
9.88	13.48	9.88	10.44	8.52	9.92	8.16	12.68	6.16	7.52	8.96
9.88	13.48	13.8	6.24	13.6	8.76	8.16	12.68	6.16	7.52	9.36
8.6	11.92	9.88	6.24	6.88	8.76	8.16	12.84	6.16	7.52	9.36
8.6	8.84	9.88	8.52	6.88	13.12	8.16	12.84	6.56	12.44	10.72
8.6	8.84	10.92	8.52	6.88	10.24	8.16	12.16	6.56	9.36	14.92
7.2	8.84	12.08	6.48	6.88	9.2	14.32	12.16	6.56	11.2	14.28
7.2	8.52	12.08	6.48	6.88	9.2	11.24	12.16	6.56	8.12	12.32
7.2	8.52	9.2	6.48	6.88	9.2	8.36	12.28	6.56	8.12	12.32
7.2	8.52	9.2	6.48	9.72	11.2	8.36	12.72	6.16	8.12	10.16
9.6	8.52	8.28	6.48	9.72	14.28	10.28	12.24	6.16	7.92	10.16
9.6	11.88	10.12	7.32	12.92	11.2	10.28	13.64	6.16	7.92	8.64
14.68	12.88	15.56	7.32	11.24	11.2	15.6	12.24	6.16	7.92	9.64
14.68	12.88	17.08	17.64	11.92	16.68	13.36	13.64	9.64	15.68	9.64
13.4	15.8	15.28	11.48	14.28	14.44	13.36	13.4	15.44	17.88	15.16
15.16	12.44	15.04	11.48	15.64	14.64	13.36	14.16	13.28	10.68	13.76
13.4	12.72	14.44	15.12	11.24	13.76	14.76	17.12	12.88	14.04	15.96
1	previous	instance:	data/A-n46-k7.vrp							
1507	1507	1507	1519	1507	1507	1507	1507	1507	1507	1519
1507	1507	1519	1519	1519	1537	1507	1519	1507	1519	1537
1519	1519	1519	1537	1519	1538	1507	1538	1537	1519	1538
1538	1537	1538	1537	1537	1538	1519	1538	1541	1519	1541
1538	1537	1538	1538	1549	1541	1519	1538	1541	1538	1553
1541	1538	1549	1538	1549	1541	1519	1549	1549	1538	1553
1541	1538	1549	1541	1549	1549	1519	1549	1553	1538	1553
1541	1541	1549	1541	1551	1551	1519	1589	1588	1541	1553
1549	1541	1551	1541	1553	1551	1549	1591	1589	1549	1576
1551	1549	1561	1549	1553	1553	1553	1591	1591	1553	1589
1568	1549	1561	1550	1571	1558	1561	1591	1591	1577	1591
1577	1551	1588	1568	1578	1561	1578	1591	1595	1578	1591
1589	1577	1591	1589	1591	1588	1589	1595	1595	1595	1591
1595	1591	1591	1589	1591	1591	1591	1597	1595	1595	1595
1595	1595	1595	1591	1595	1595	1595	1598	1597	1595	1595
1595	1597	1595	1591	1595	1595	1595	1598	1597	1595	1595
1595	1598	1598	1591	1597	1597	1595	1609	1598	1597	1598
1598	1598	1609	1591	1597	1598	1595	1613	1598	1609	1609
1609	1598	1613	1598	1598	1598	1595	1613	1609	1609	1613
1613	1609	1613	1613	1613	1598	1595	1613	1613	1613	1613
1613	1613	1613	1613	1613	1613	1597	1614	1613	1613	1615
1615	1613	1613	1613	1613	1613	1598	1615	1613	1613	1615
1615	1631	1614	1615	1613	1613	1598	1631	1613	1614	1615
1615	1631	1614	1615	1613	1615	1631	1631	1631	1615	1615
1631	1631	1615	1631	1615	1631	1631	1631	1631	1631	1631
10.16	9.88	10.32	6.68	10.84	10.84	9.4	10.52	10.48	10.96	6.92
10.16	9.88	7.24	6.68	7.72	9.2	9.4	7.4	10.48	8.2	9
8.4	7.68	7.24	8.48	7.72	9.2	9.4	8.2	9.4	8.2	9
10.2	8.16	9.12	8.48	8.68	9.2	6.92	8.2	10.48	8.2	10.04
10.2	8.16	9.12	8.48	7.68	10.84	6.92	8.2	10.48	8.76	6.92
10.16	8.16	7.2	8.48	7.68	10.84	6.92	7.04	8.48	8.76	6.92
10.16	8.16	7.2	9.28	7.68	8.6	6.92	7.04	8.4	8.76	6.92
10.16	9.88	7.2	9.28	9.04	8.24	6.92	8.44	10.2	10.96	6.92
8.76	9.88	7.2	9.28	7.72	8.24	7.32	7.04	9.28	8.4	10.28
8.44	7.68	7.2	6.72	7.72	8.44	6.92	7.04	8.48	8.2	7.64
12.72	7.68	7.2	8.68	17.48	12.6	8.32	7.04	8.48	10	7.16
9.64	9.12	8.52	12.52	9.64	8.24	9.96	7.04	7.72	9.16	7.16
8.32	9.76	7.2	8.4	7.68	9.64	8.76	8.56	7.72	7.96	7.16
9.24	7.68	7.2	8.4	7.68	8.6	7.32	7.64	7.72	7.96	9.12
9.24	8.84	9.12	6.72	8.4	8.84	8.32	7.64	7.16	7.96	9.12
9.24	7.56	9.12	6.72	8.4	8.84	8.32	7.64	7.16	7.96	9.12
9.24	7.56	8.56	6.72	7.8	7.72	8.32	6.72	7.16	7.56	8.52
8.72	7.56	7.24	6.72	7.8	7.72	8.32	8.56	7.16	7.52	7.12
7.68	7.56	9.08	9.64	7.8	7.72	8.32	8.56	7.04	7.52	9.28
9.4	7.44	9.08	10.52	8.2	7.72	8.32	8.56	7.68	8.04	9.28
9.4	8.72	9.08	10.52	8.2	8.6	8.08	9.36	7.68	8.04	7.64
8.32	8.72	9.08	10.52	8.2	8.6	8.08	8.44	7.68	8.04	7.64
8.32	7.44	8.52	8.4	8.2	8.6	8.08	6.72	7.68	9.84	7.64
8.32	7.44	8.52	8.4	8.2	8.8	7.08	6.72	7.04	9	7.64
7.68	7.44	7.76	8.2	9.4	7.72	7.08	6.72	7.04	7.52	7.12
2	previous	instance:	data/A-n60-k9.vrp							
1016	1016	1016	1016	1016	1016	1016	1016	1016	1016	1021
1016	1021	1016	1016	1016	1021	1016	1021	1016	1016	1021
1021	1021	1021	1016	1021	1021	1016	1021	1021	1021	1022
1021	1021	1022	1021	1021	1022	1021	1021	1021	1021	1022
1021	1021	1022	1021	1021	1026	1021	1022	1021	1021	1022
1021	1021	1022	1022	1022	1026	1022	1022	1021	1021	1022
1021	1022	1029	1022	1022	1026	1026	1022	1022	1021	1026
1022	1022	1029	1022	1022	1029	1026	1026	1022	1022	1029
1022	1026	1029	1022	1026	1029	1042	1026	1026	1022	1029
1022	1026	1042	1022	1026	1029	1042	1026	1026	1026	1029
1026	1029	1047	1022	1026	1042	1042	1026	1026	1026	1029
1026	1029	1047	1026	1029	1042	1047	1026	1029	1029	1042
1042	1042	1047	1026	1029	1042	1047	1029	1029	1042	1042
1042	1047	1047	1042	1047	1047	1047	1029	1042	1042	1042
1047	1047	1047	1047	1047	1047	1047	1029	1047	1047	1047
1047	1047	1067	1047	1047	1047	1047	1047	1047	1047	1047
1047	1047	1067	1047	1047	1047	1047	1047	1047	1047	1067
1047	1067	1067	1047	1047	1067	1047	1047	1067	1047	1067
1047	1067	1067	1047	1047	1067	1047	1047	1067	1047	1067
1067	1067	1067	1047	1047	1067	1067	1047	1067	1047	1067
1067	1067	1067	1047	1067	1067	1067	1047	1067	1047	1067
1067	1067	1067	1067	1067	1067	1067	1047	1067	1047	1067
1067	1067	1067	1067	1067	1067	1067	1067	1067	1067	1067
1067	1067	1067	1067	1067	1067	1067	1067	1067	1067	1067
1067	1067	1067	1067	1067	1067	1067	1067	1067	1067	1067
8.96	9.28	9.68	8.4	8.8	10.08	9.76	8.8	8.88	9.04	6
8.96	5.36	9.68	8.4	8.8	6.48	9.76	4.04	8.88	9.04	6
5.4	5.36	6.6	8.4	4.84	6.48	9.76	4.04	5.4	5.12	6
5.4	5.36	6.6	4.92	4.84	6.48	6.96	4.04	5.4	5.12	6
5.4	5.36	6.6	4.92	4.84	6	6.96	4.04	5.4	5.12	6
5.4	5.36	6.6	4.92	4.84	6	6.96	4.04	5.4	5.12	6
5.4	5.36	6.44	4.92	4.84	6	7.04	4.04	5.4	5.12	5.72
5.4	5.36	6.44	4.92	4.84	6	7.04	3.84	5.4	5.12	5.72
5.4	5.36	6.44	4.92	4.88	6	7.68	3.84	5.32	5.12	5.72
5.4	5.36	7.48	4.92	4.88	6	7.68	3.84	5.32	5.48	5.72
5.8	5.36	6.08	4.92	4.88	7.28	7.68	3.84	5.32	5.48	5.72
5.8	5.36	6.08	5.48	4.88	7.28	5.6	3.84	5.32	5.48	7.08
8.44	8.24	6.08	5.48	4.88	7.28	5.6	3.84	5.32	9.16	7.08
8.44	6.16	6.08	9.48	5.44	6.32	5.6	3.84	8.44	9.16	7.08
6.16	6.16	6.08	5.72	5.44	6.32	5.6	3.84	6.64	5.32	6.68
6.16	6.16	5.16	5.72	5.44	6.32	5.6	5.24	6.64	5.32	6.68
6.16	6.16	5.16	5.72	5.44	6.32	5.6	5.24	6.64	5.32	5.12
6.16	5.96	5.16	5.72	5.44	5.32	5.6	5.24	6.12	5.32	5.12
6.16	5.96	5.16	5.72	5.44	5.32	5.6	5.24	6.12	5.32	5.12
6.52	5.96	5.16	5.72	5.44	5.32	5.96	5.24	6.12	5.32	5.12
6.52	5.96	5.16	5.72	7.12	5.32	5.96	5.24	6.12	5.32	5.12
6.52	5.96	5.16	7.44	7.12	5.32	5.96	5.24	6.12	5.32	5.12
6.52	5.96	5.16	7.44	7.12	5.32	5.96	7.72	6.12	7.32	5.12
6.52	5.96	5.16	7.44	7.12	5.32	5.96	7.72	6.12	7.32	5.12
6.52	5.96	5.16	7.44	7.12	5.32	5.96	7.72	6.12	7.32	5.12
3	previous	instance:	data/B-n35-k5.vrp							
1366	1366	1371	1372	1371	1371	1371	1372	1372	1372	1372
1371	1372	1372	1372	1371	1371	1372	1372	1372	1372	1372
1372	1372	1372	1372	1372	1371	1372	1372	1372	1372	1372
1372	1372	1372	1372	1372	1372	1372	1373	1373	1372	1373
1373	1372	1373	1372	1372	1372	1372	1373	1374	1372	1373
1373	1373	1373	1372	1373	1372	1372	1373	1374	1372	1373
1373	1373	1373	1373	1373	1372	1372	1373	1375	1372	1373
1373	1373	1373	1374	1373	1372	1373	1374	1375	1372	1373
1374	1373	1373	1374	1373	1372	1373	1374	1375	1374	1374
1374	1373	1374	1374	1375	1372	1373	1374	1375	1374	1374
1375	1374	1375	1375	1375	1373	1373	1374	1375	1374	1374
1375	1374	1375	1375	1375	1374	1374	1375	1375	1375	1374
1375	1374	1375	1375	1375	1374	1375	1375	1375	1375	1374
1375	1375	1375	1375	1375	1374	1375	1375	1377	1375	1375
1376	1375	1375	1375	1375	1374	1375	1375	1377	1375	1375
1376	1375	1375	1375	1375	1375	1375	1375	1401	1375	1375
1377	1375	1377	1375	1375	1375	1375	1376	1401	1375	1375
1377	1375	1377	1376	1375	1375	1376	1377	1403	1377	1376
1377	1375	1377	1377	1375	1375	1376	1399	1403	1377	1377
1377	1375	1377	1384	1377	1384	1377	1401	1407	1377	1384
1384	1376	1399	1384	1399	1399	1377	1403	1409	1377	1384
1403	1377	1407	1403	1403	1402	1377	1406	1409	1377	1399
1409	1377	1407	1407	1403	1409	1377	1409	1409	1402	1403
1409	1377	1407	1409	1407	1409	1409	1410	1409	1403	1403
1409	1377	1409	1410	1409	1409	1410	1410	1410	1403	1409
17.28	16.72	10.48	6.16	10.24	9.12	13.44	7.48	6.84	4.2	7.64
11.52	5.28	6.04	6.16	10.24	9.12	5.92	7.48	6.84	4.2	7.64
7.36	5.28	6.04	6.16	6.36	9.12	5.92	7.48	6.84	4.2	7.64
7.36	5.28	6.04	6.16	6.36	5.88	5.92	5.08	4.48	4.2	4.56
4.4	5.28	3.32	6.16	6.36	5.88	5.92	5.08	7.56	4.2	4.56
4.4	3.84	3.32	6.16	4.12	5.88	13.44	5.08	7.56	4.2	4.56
4.4	3.84	3.32	4.72	4.12	5.88	5.92	5.08	4.48	4.2	4.56
4.4	3.84	3.32	10.32	4.12	5.88	3.68	8.16	4.48	4.2	4.56
9.84	3.84	3.32	6.88	4.12	5.88	3.68	10.88	4.52	5.04	6.76
9.84	3.84	6.88	7.12	4.12	5.88	3.68	8.16	4.52	5.04	6.76
4.44	6.16	3.6	4.52	4	6.36	3.68	8.16	4.52	5.04	8.28
4.44	6.16	3.32	4.72	4.12	6.4	7	5.4	4.52	3.72	8.68
4.44	11.6	3.32	4.52	4.12	11.24	3.68	5.08	4.48	3.72	8.28
4.44	3.16	3.32	4.52	4	6.4	3.68	5.4	4.52	5.52	4.56
4.68	3.16	3.6	4.72	4	8.76	3.8	5.08	4.52	5.52	5.4
4.68	3.84	3.32	4.72	4	6.36	3.68	5.4	12.08	5.52	4.56
4.44	3.16	3.6	4.52	4	5.68	3.8	5.6	12.08	3.72	4.56
4.44	3.16	3.6	5.16	4	5.68	4.36	5.4	11.04	3.72	4.84
4.44	3.84	3.6	4.52	4.12	6.36	4.36	12.4	11.04	3.72	5.4
4.44	3.16	3.6	10.32	4	11.24	3.8	13.84	6.8	3.72	8.68
9.84	4.68	12.68	10.32	10.96	12.36	3.8	12.4	4.8	3.72	8.68
11.04	3.16	5.44	11.52	10.96	13.48	3.8	15.84	4.8	3.72	9.44
4.68	3.16	5.44	6.88	10.96	6.84	3.8	8.12	4.8	12.72	9.44
4.68	3.16	5.44	5.16	6.72	9.92	4.36	8.12	4.8	11.8	9.44
4.68	3.16	6.64	8.16	4.76	6.84	6.96	8.12	8.04	11.8	4.84
5	previous	instance:	data/B-n68-k9.vrp							
598	598	598	598	598	598	598	598	598	598	598
598	598	598	598	598	598	598	598	598	598	598
598	598	598	598	598	598	598	598	598	598	598
598	598	598	598	598	598	598	598	598	598	598
598	598	598	598	598	598	598	598	598	598	598
598	598	598	598	598	598	598	598	598	598	598
598	598	598	598	598	598	598	598	598	598	598
598	598	598	598	598	598	598	598	598	598	598
598	598	598	598	598	598	598	598	598	598	598
598	598	598	598	598	598	598	598	618	598	598
598	598	598	598	598	598	598	598	618	618	598
618	598	598	598	598	598	598	598	618	618	598
618	598	618	598	598	598	598	598	618	618	598
618	598	618	618	618	598	598	598	618	618	618
618	598	618	618	618	598	618	598	618	618	618
618	598	618	618	618	618	618	598	618	618	618
618	618	618	618	618	618	618	618	618	618	618
618	618	618	618	618	618	618	618	618	618	618
618	618	618	618	618	618	618	618	618	618	618
618	618	618	618	618	618	618	618	618	618	618
618	618	618	618	618	618	618	618	618	618	618
618	618	618	618	618	618	618	618	618	618	618
618	618	618	618	618	618	618	618	618	618	618
618	618	618	618	618	618	618	618	618	618	618
618	618	618	618	618	618	618	618	618	618	618
0	0	0	0	0	0	0	0	0	0	0
0	0	0	0	0	0	0	0	0	0	0
0	0	0	0	0	0	0	0	0	0	0
0	0	0	0	0	0	0	0	0	0	0
0	0	0	0	0	0	0	0	0	0	0
0	0	0	0	0	0	0	0	0	0	0
0	0	0	0	0	0	0	0	0	0	0
0	0	0	0	0	0	0	0	0	0	0
0	0	0	0	0	0	0	0	0	0	0
0	0	0	0	0	0	0	0	0	0	0
0	0	0	0	0	0	0	0	0	0	0
0	0	0	0	0	0	0	0	0	0	0
0	0	0	0	0	0	0	0	0	0	0
0	0	0	0	0	0	0	0	0	0	0
0	0	0	0	0	0	0	0	0	0	0
0	0	0	0	0	0	0	0	0	0	0
0	0	0	0	0	0	0	0	0	0	0
0	0	0	0	0	0	0	0	0	0	0
0	0	0	0	0	0	0	0	0	0	0
0	0	0	0	0	0	0	0	0	0	0
0	0	0	0	0	0	0	0	0	0	0
0	0	0	0	0	0	0	0	0	0	0
0	0	0	0	0	0	0	0	0	0	0
0	0	0	0	0	0	0	0	0	0	0
0	0	0	0	0	0	0	0	0	0	0
7	previous	instance:	data/E-n30-k3.vrp							
660	660	660	660	660	660	660	660	660	660	660
660	660	660	660	660	660	660	660	660	660	660
660	660	660	660	660	660	660	660	660	660	660
660	660	660	660	660	660	667	667	660	660	660
660	667	660	667	660	660	667	667	667	660	660
660	667	660	667	660	660	667	667	667	660	660
660	667	660	667	660	660	667	667	667	660	667
660	667	667	667	660	660	667	667	667	660	667
667	667	667	667	660	667	667	667	667	660	667
667	667	667	667	660	667	674	667	667	667	667
667	667	667	667	667	667	674	674	674	667	674
667	667	674	667	667	667	674	674	674	667	674
667	667	674	667	674	667	674	674	674	667	674
667	667	674	674	674	674	674	686	674	667	674
667	674	674	674	674	674	674	686	674	667	686
674	674	674	674	674	674	674	686	686	667	686
674	674	674	674	674	674	686	686	686	674	686
674	674	674	674	686	674	686	686	686	674	686
674	674	674	674	686	686	686	686	686	674	686
674	686	686	674	686	686	686	686	686	674	686
674	686	686	686	686	686	686	686	686	686	686
686	686	686	686	686	686	686	686	686	686	686
686	686	686	686	686	686	686	686	686	686	686
686	686	686	686	686	686	686	686	686	686	686
686	686	686	686	686	686	686	686	686	686	686
3.64	4.2	3.36	4.48	1.96	2.8	3.64	2.8	3.08	3.08	2.24
3.64	4.2	3.36	4.48	1.96	2.8	3.64	2.8	3.08	3.08	2.24
3.64	4.2	3.36	4.48	1.96	2.8	3.64	2.8	3.08	3.08	2.24
3.64	4.2	3.36	4.48	1.96	2.8	3.36	4.2	3.08	3.08	2.24
3.64	2.8	3.36	2.52	1.96	2.8	3.36	4.2	3.92	3.08	2.24
3.64	2.8	3.36	2.52	1.96	2.8	3.36	4.2	3.92	3.08	2.24
3.64	2.8	3.36	2.52	1.96	2.8	3.36	4.2	3.92	3.08	4.76
3.64	2.8	3.64	2.52	1.96	2.8	3.36	4.2	3.92	3.08	4.76
3.36	2.8	3.64	2.52	1.96	4.2	3.36	4.2	3.92	3.08	4.76
3.36	2.8	3.64	2.52	1.96	4.2	3.36	4.2	3.92	3.92	4.76
3.36	2.8	3.64	2.52	5.04	4.2	3.36	4.2	3.92	3.92	4.76
3.36	2.8	3.64	2.52	5.04	4.2	3.36	4.2	3.92	3.92	4.76
3.36	2.8	3.64	2.52	5.04	4.2	3.36	4.2	3.92	3.92	4.76
3.36	2.8	3.64	2.52	5.04	4.2	3.36	2.8	3.92	3.92	4.76
3.36	2.8	3.64	2.52	5.04	4.2	3.36	2.8	3.92	3.92	2.24
3.36	2.8	3.64	2.52	5.04	4.2	3.36	2.8	3.08	3.92	2.24
3.36	2.8	3.64	2.52	5.04	4.2	3.64	2.8	3.08	3.92	2.24
3.36	2.8	3.64	2.52	1.96	4.2	3.64	2.8	3.08	3.92	2.24
3.36	2.8	3.64	2.52	1.96	2.8	3.64	2.8	3.08	3.92	2.24
3.36	4.2	3.36	2.52	1.96	2.8	3.64	2.8	3.08	3.92	2.24
3.36	4.2	3.36	4.48	1.96	2.8	3.64	2.8	3.08	3.08	2.24
3.64	4.2	3.36	4.48	1.96	2.8	3.64	2.8	3.08	3.08	2.24
3.64	4.2	3.36	4.48	1.96	2.8	3.64	2.8	3.08	3.08	2.24
3.64	4.2	3.36	4.48	1.96	2.8	3.64	2.8	3.08	3.08	2.24
3.64	4.2	3.36	4.48	1.96	2.8	3.64	2.8	3.08	3.08	2.24
8	previous	instance:	data/E-n51-k5.vrp							
876	888	888	876	869	865	869	884	871	876	884
881	888	888	888	893	888	884	884	883	888	888
884	888	888	900	895	895	885	888	885	894	888
884	897	900	902	902	902	888	893	888	901	888
888	900	900	903	903	903	894	895	894	901	888
888	902	902	903	904	903	900	901	897	902	888
888	903	903	903	909	909	900	902	901	902	895
900	903	903	903	915	914	900	903	902	903	897
900	906	903	908	925	915	903	903	902	903	900
901	908	904	925	925	925	914	917	904	907	900
902	909	906	926	925	925	915	926	904	908	900
908	913	908	934	933	926	917	926	925	914	900
919	914	909	934	941	926	917	934	925	915	901
925	917	917	939	947	934	917	934	932	917	903
925	925	917	941	947	934	925	938	933	917	903
925	939	919	943	947	943	926	939	934	925	903
934	939	934	943	953	943	932	939	934	925	915
943	943	934	945	953	943	934	943	934	932	941
943	945	934	945	958	945	934	943	941	934	943
945	945	938	947	964	946	941	945	945	941	943
945	945	939	947	964	964	943	945	945	943	947
947	945	958	947	969	967	945	945	945	943	953
958	947	964	953	969	969	953	953	945	947	953
981	947	976	953	981	976	964	953	947	947	964
981	981	981	969	981	976	976	969	964	976	969
28.68	16.92	29.8	29.08	30.84	26.44	31.12	25.4	28.76	31.48	24.96
25.72	25.32	25.52	16.52	31.4	19.68	25.84	25.4	24.4	22.92	16.8
25.72	16.92	25.52	30.68	20.52	19.2	27.92	19.88	25.32	28.2	16.8
30.52	25.48	20.76	17.4	20.96	23.4	21.16	31.56	19.28	31.24	25.12
21.76	19.76	20.8	17.4	22.56	20.52	25.84	19.4	23.96	24.88	30.08
28.28	18.64	19.48	17.4	21.84	19.8	21.04	28.84	24.32	23.68	16.8
21.76	19.16	20.8	18.68	31.4	32.36	31.28	27.08	29.76	24.88	16.6
30.48	19.68	20.24	21.8	28	22.88	21.04	20.8	18.84	18.84	24.96
22.36	25.48	19.48	16.2	24	23.4	21.32	22.84	31.56	18.84	18.6
28.28	16.6	20.24	31.48	24	28.92	21.56	21.56	19.52	32.52	18.4
27.88	31.84	28.12	24.36	24	29.24	28.32	30.56	19.52	22.52	18.4
21.2	23.56	18.84	13.96	27.08	22.8	21.52	30.56	29.36	19.36	18.4
30.36	20.12	30.48	13.96	25.52	31.56	25.84	18.04	31.28	27.92	30.08
26.24	24.8	21.08	28.24	18.04	18.52	21.52	18.04	29.36	19.36	18.6
26.64	27.88	21.08	30.24	18.04	18.52	30.56	31.36	25.92	19.36	18.24
26.64	27.92	31.76	13.76	18.04	17.84	24.64	26.48	18.08	23.84	18.4
20.24	31.16	19.2	13.76	16.88	17.84	31.4	26.48	18.08	23.96	23.72
26.68	15.84	19.2	13.76	16.88	17.84	21.52	17.72	18.08	32.2	27
24.32	15.84	19.2	13.76	23.6	17.84	21.52	17.72	31.52	20.48	16.6
20.52	15.84	30.04	13.96	21.04	24.48	27.84	17.72	18.12	23.96	16.6
20.52	15.84	29.04	13.96	21.04	20.28	21.88	17.72	18.12	24.72	16.48
20.24	15.84	27.96	13.96	17.48	25.04	21.4	17.72	18.12	21.12	19.88
26.24	16.6	19.92	17.32	16.88	20.92	27.64	20.24	18.12	20.48	19.88
21.6	16.6	29.48	17.32	17.48	27.52	21.88	26.28	18.08	20.48	18.44
21.6	20.8	23.88	17.32	17.48	27.52	27.36	20.24	19.28	24.72	20.36
9	previous	instance:	data/E-n76-k7.vrp							
1404	1405	1414	1413	1405	1413	1413	1413	1405	1400	1413
1405	1413	1414	1414	1405	1414	1414	1414	1413	1405	1414
1405	1414	1415	1414	1413	1414	1414	1414	1414	1414	1414
1414	1414	1415	1414	1414	1414	1414	1414	1414	1414	1414
1414	1414	1415	1414	1414	1414	1414	1414	1414	1414	1414
1414	1414	1415	1414	1414	1414	1414	1415	1414	1414	1414
1414	1415	1415	1414	1414	1414	1414	1415	1414	1414	1414
1414	1415	1415	1415	1414	1414	1414	1415	1414	1414	1414
1414	1415	1415	1415	1415	1414	1414	1415	1415	1415	1415
1414	1415	1418	1415	1415	1415	1415	1415	1415	1415	1415
1414	1415	1418	1415	1415	1415	1415	1418	1418	1415	1415
1415	1415	1418	1415	1418	1415	1415	1418	1418	1418	1415
1415	1415	1418	1418	1418	1415	1415	1418	1418	1418	1415
1415	1415	1418	1418	1418	1415	1415	1418	1418	1418	1415
1415	1418	1422	1418	1418	1418	1415	1418	1418	1418	1418
1415	1418	1422	1418	1418	1418	1415	1418	1418	1419	1418
1415	1418	1422	1418	1419	1418	1415	1418	1418	1422	1418
1415	1418	1422	1419	1422	1418	1415	1419	1422	1422	1418
1418	1422	1425	1422	1422	1419	1418	1419	1422	1422	1418
1418	1422	1425	1422	1422	1419	1418	1419	1422	1422	1419
1422	1422	1448	1422	1422	1422	1418	1419	1422	1422	1422
1475	1425	1475	1422	1425	1422	1419	1422	1422	1422	1422
1475	1448	1475	1422	1425	1422	1422	1422	1425	1448	1422
1477	1477	1475	1425	1448	1448	1422	1422	1448	1448	1462
1478	1478	1478	1448	1477	1475	1478	1478	1462	1462	1475
29.88	34.08	13.32	64.4	32.88	65	66	67.52	38.52	38.56	63.4
27.6	64.12	13.32	7.64	32.88	8	4.84	7.32	61.52	38.64	7.28
27.6	11.2	13.32	7.64	64.32	8	4.84	7.32	11	11.6	7.28
11.52	11.2	13.32	7.64	13.2	8	4.84	7.32	11	11.6	7.28
11.52	11.2	13.32	7.64	13.2	8	4.84	7.32	11	11.6	7.28
11.52	11.2	13.32	7.64	13.2	8	4.84	7.32	11	11.6	7.28
11.52	11.2	13.32	7.64	13.2	8	4.84	7.32	11	11.6	7.28
11.52	11.2	13.32	7.64	13.2	8	4.84	7.32	11	11.6	7.28
11.52	11.2	13.32	7.64	13.2	8	4.84	7.32	11	11.6	7.28
11.52	11.2	19.88	7.64	13.2	8	4.84	7.32	11	11.6	7.28
11.52	11.2	13.36	7.64	13.2	8	4.84	11.76	10.8	11.6	7.28
11.52	11.2	13.36	7.64	13.4	8	4.84	6.48	10.8	18.2	7.28
11.52	11.2	13.36	7.96	13.4	8	4.84	11.76	10.8	18.2	7.28
11.52	11.2	13.36	15.84	13.4	8	4.84	6.48	10.8	18.2	7.28
11.52	12.28	13.36	7.96	13.4	16.12	4.84	6.48	10.8	11.8	7.92
11.52	12.28	13.36	7.96	13.4	8.8	4.84	6.48	10.8	18.2	7.92
11.52	12.28	13.36	7.96	20.4	8.8	4.84	6.48	18.52	11.8	7.92
11.52	12.28	13.36	15.84	13.4	16.12	4.84	11.76	10.8	11.8	7.92
13.32	12.28	29.96	7.96	13.4	16.12	6.56	11.76	10.8	11.8	7.92
13.32	12.28	29.96	7.96	13.4	16.12	6.56	11.76	10.8	11.8	16.8
13.32	12.28	50.68	7.96	13.4	8.8	6.56	11.76	10.8	11.8	7.92
28.28	34.08	30.68	7.96	32.88	8.8	16.16	6.48	10.8	11.8	7.92
28.28	48	30.68	7.96	32.88	8.8	6.56	6.48	38.52	46.2	7.92
27	32.52	30.68	38.72	48.6	47.84	6.56	6.48	46.4	46.2	63.4
28.28	34.92	30.68	47.28	31.72	39.84	38.36	39.6	61.52	63.08	39.88
11	previous	instance:	data/F-n135-k7.vrp							
1007	1004	1012	1003	1003	1003	1002	1002	1002	1012	1001
1028	1005	1028	1028	1007	1005	1002	1002	1018	1027	1002
1044	1005	1028	1028	1022	1005	1007	1012	1034	1028	1007
1049	1012	1049	1040	1040	1012	1012	1012	1040	1028	1025
1053	1028	1049	1049	1040	1028	1027	1012	1040	1040	1040
1053	1040	1052	1053	1040	1041	1027	1028	1040	1040	1049
1053	1040	1053	1055	1049	1053	1028	1049	1040	1049	1049
1076	1076	1053	1076	1074	1055	1036	1049	1052	1053	1053
1082	1078	1053	1076	1076	1076	1040	1049	1052	1053	1053
1082	1082	1076	1076	1076	1076	1040	1053	1053	1053	1053
1091	1091	1076	1078	1076	1076	1040	1076	1082	1053	1053
1091	1091	1076	1082	1076	1090	1045	1076	1091	1053	1076
1092	1101	1076	1082	1078	1091	1049	1076	1091	1076	1076
1096	1104	1076	1082	1080	1104	1053	1076	1091	1076	1076
1098	1104	1082	1082	1091	1105	1076	1076	1101	1082	1076
1101	1105	1091	1091	1092	1106	1076	1082	1102	1102	1076
1104	1105	1092	1104	1103	1111	1091	1082	1104	1102	1076
1105	1105	1101	1105	1103	1115	1091	1091	1105	1103	1090
1105	1111	1104	1107	1104	1117	1102	1102	1105	1103	1090
1105	1115	1104	1111	1105	1118	1103	1104	1105	1105	1091
1105	1115	1105	1115	1105	1118	1104	1105	1106	1105	1104
1105	1118	1105	1122	1105	1118	1117	1117	1111	1111	1106
1118	1118	1107	1139	1105	1122	1118	1118	1111	1115	1115
1118	1118	1115	1147	1118	1122	1120	1118	1138	1118	1118
1148	1122	1137	1153	1149	1201	1150	1126	1153	1118	1124
22.36	22.48	18.8	27.88	26.04	23.24	24.76	25.2	27.44	19.56	24.72
20.28	22.76	18.28	23.68	27.8	23.24	29.88	21.32	25.12	18.28	24.2
19.12	22.76	18.28	23.68	19.24	23.24	22	16.72	19.76	19.08	20.56
14.52	18.12	12.56	21.64	17.28	18.52	20.32	16.72	20.6	19.08	16.64
14.4	17.92	12.56	17.88	20.92	17.92	20.96	16.72	17.16	14.12	24.2
14.4	14.92	18.16	18.92	20.92	21.76	19.92	16.64	17.16	14.12	12.88
14.4	26.76	22.64	19.6	16.08	15.4	19.88	12.84	20.6	13.8	12.88
13.96	14.6	12.68	23.96	25.44	24.84	25.88	12.84	18.68	13.56	12.2
20.56	22.64	12.68	17.72	15.44	14.72	15.84	12.84	18.68	13.56	12.2
20.2	23.48	11.96	17.72	15.52	14.36	15.84	13.8	16.8	13.56	23.56
13.96	14.6	12.04	19.16	15.52	14.72	15.84	12.72	20.92	22.4	12.2
13.96	14.6	11.96	19.12	15.44	28.84	25.12	12.52	16.24	18	11.88
25.64	27.6	12.04	19.12	19.2	14.72	15.16	30.24	16.24	13.32	11.8
21.08	13.32	12.04	19.12	20.52	15.28	19.04	12.72	16.24	13.36	11.8
20.64	13.32	21.92	20.24	15.44	14.92	14.96	12.72	22.36	21.96	11.8
24.64	13.52	12.04	17.88	22.12	26.12	14.96	26.24	21.44	21.24	11.88
14.36	13.52	22.64	17.52	21.64	16.76	15.16	25.2	18.2	21.24	11.88
14.16	13.52	25.8	17.76	22.28	15	15.16	12.72	17.56	25.96	27.36
15.68	15.52	14.96	22.48	18.12	15.2	25.16	24.64	18.08	24.44	27.36
14.16	13.48	14.96	19.08	18.08	15.16	26.32	15.16	18.08	15.44	11.8
14.16	13.48	14.92	17.68	17.96	15.16	19.04	15.08	21.68	15.44	17.76
14.16	13.84	14.92	18.44	17.96	15.16	18.76	16.84	19.04	17.6	24.56
15.04	13.84	25.8	22.6	18.08	15.2	19.4	15.36	19.04	15.56	17.56
15.04	13.84	15.52	25.96	18.76	15.2	32.44	15.36	24.64	15.64	17.4
23.8	14.76	24.76	25.96	26.08	29.44	24.92	21.4	26.24	15.64	22.48
12	previous	instance:	data/M-n101-k10.vrp							
1186	1186	1186	1186	1186	1186	1186	1186	1186	1186	1186
1186	1186	1186	1186	1192	1192	1192	1192	1192	1186	1186
1192	1192	1192	1192	1192	1192	1192	1192	1192	1192	1192
1192	1192	1193	1192	1193	1192	1192	1192	1192	1192	1192
1196	1192	1193	1192	1196	1192	1193	1192	1193	1192	1192
1201	1193	1196	1192	1196	1193	1193	1193	1193	1193	1193
1201	1193	1201	1192	1196	1193	1193	1193	1196	1193	1196
1201	1193	1201	1196	1196	1196	1196	1196	1196	1193	1196
1204	1196	1201	1201	1201	1201	1196	1201	1201	1201	1201
1204	1196	1201	1204	1201	1201	1196	1201	1204	1201	1201
1205	1196	1201	1204	1201	1204	1196	1201	1204	1204	1201
1235	1201	1204	1204	1201	1204	1201	1201	1204	1204	1204
1235	1201	1205	1204	1204	1205	1201	1205	1205	1235	1205
1235	1201	1205	1204	1204	1235	1201	1235	1205	1235	1235
1235	1205	1205	1205	1204	1235	1201	1235	1205	1235	1235
1235	1235	1235	1235	1205	1235	1201	1235	1205	1235	1235
1235	1235	1235	1235	1205	1235	1204	1235	1235	1235	1235
1240	1235	1235	1235	1235	1235	1205	1235	1235	1235	1235
1240	1235	1235	1235	1235	1235	1205	1235	1235	1235	1235
1240	1235	1235	1235	1235	1235	1235	1240	1235	1235	1240
1240	1240	1240	1240	1235	1240	1235	1240	1235	1240	1240
1240	1240	1240	1240	1240	1240	1235	1240	1235	1240	1240
1240	1240	1240	1240	1240	1240	1235	1240	1235	1240	1240
1240	1240	1240	1240	1240	1240	1240	1240	1240	1240	1240
1240	1240	1240	1240	1240	1240	1240	1240	1240	1240	1240
5.96	4.88	5.56	5.24	4.84	5.52	4.36	5.68	5.32	5.4	5.8
5.96	4.88	5.56	5.24	3.12	3.36	2.84	2.88	4.28	5.4	5.8
3.24	3.2	3.92	3.08	3.12	3.36	2.84	2.88	4.28	3.56	3.4
3.24	3.2	5.56	3.08	4.84	3.36	2.84	2.88	4.28	3.56	3.4
4.44	3.2	5.56	3.08	3.6	3.36	4.36	2.88	5.32	3.56	3.4
3.24	4.88	4.88	3.08	3.6	5.52	4.36	5.68	5.32	5.4	5.8
3.24	4.88	3.92	3.08	3.6	5.52	4.36	5.68	4.76	5.4	4.48
3.24	4.88	3.92	3.84	3.6	4.68	3.36	4.44	4.76	5.4	4.48
4.44	3.96	3.92	3.08	3.12	3.36	3.36	2.88	4.28	3.56	3.4
4.44	3.96	3.92	3.84	3.12	3.36	3.36	2.88	6.24	3.56	3.4
7.2	3.96	3.92	3.84	3.12	6.36	3.36	2.88	4.76	6.48	3.4
2.52	3.2	4.88	3.84	3.12	6.36	2.84	2.88	4.76	6.48	4.48
2.52	3.2	6.72	6.48	6	6.36	2.84	6.84	12.2	3.12	13.56
2.52	3.2	12.52	3.84	3.6	3.24	2.84	2.84	6.24	3.12	3.28
2.52	6.36	12.52	6.48	3.6	3.24	2.84	2.84	12.2	3.12	3.28
2.52	3.64	4.36	3.52	6	3.24	2.84	2.84	6.24	3.12	3.28
2.52	3.64	4.36	3.52	6	3.24	3.36	2.84	4.92	3.12	3.28
2.52	3.64	4.36	3.52	4.12	3.24	5.76	2.84	4.92	3.12	3.28
2.52	3.64	4.36	3.52	4.12	3.24	5.76	2.84	4.92	3.12	3.28
2.52	3.64	4.36	3.52	4.12	3.24	4.48	2.84	4.92	3.12	3.28
2.52	3.64	4.36	3.52	4.12	3.24	4.48	2.84	4.92	3.12	3.28
2.52	3.64	4.36	3.52	4.12	3.24	4.48	2.84	4.92	3.12	3.28
2.52	3.64	4.36	3.52	4.12	3.24	4.48	2.84	4.92	3.12	3.28
2.52	3.64	4.36	3.52	4.12	3.24	4.48	2.84	4.92	3.12	3.28
2.52	3.64	4.36	3.52	4.12	3.24	4.48	2.84	4.92	3.12	3.28
13	previous	instance:	data/M-n121-k7.vrp							
767	767	767	767	786	767	767	786	767	767	786
767	797	767	786	786	786	767	797	786	786	797
786	797	786	786	786	786	797	797	786	786	797
786	816	786	786	786	786	797	816	797	786	816
786	816	786	786	797	797	816	816	797	786	816
816	816	797	816	797	797	816	829	816	797	816
816	822	816	816	816	816	816	829	816	816	822
816	822	816	816	816	816	822	831	822	816	822
822	831	816	816	816	816	822	831	829	816	822
829	831	816	816	816	822	822	831	829	816	829
829	831	822	816	822	822	822	831	829	816	831
829	831	822	816	829	822	831	831	829	831	831
831	831	829	829	829	829	831	831	836	831	831
836	831	831	831	831	829	831	831	836	831	831
836	831	831	836	831	831	831	836	851	836	836
849	836	831	849	836	831	836	836	851	849	836
849	836	836	849	836	831	836	836	851	851	836
849	836	849	851	836	831	836	849	851	851	851
851	849	849	851	836	836	851	851	851	851	851
851	851	849	861	861	836	851	851	861	851	861
851	851	851	866	861	851	851	851	861	861	861
861	861	851	866	861	861	851	851	861	861	861
861	861	861	866	861	866	861	851	866	866	861
866	866	861	866	861	866	866	861	866	866	866
866	866	866	866	866	866	866	866	866	866	866
19.24	19.48	16.72	18.24	14.52	16.76	16.16	13.84	20.68	17.92	14.8
19.24	22.76	16.72	10.8	14.52	12.88	16.16	20.4	15.92	10.44	22.44
13.96	22.76	11.88	10.8	14.52	12.88	21.84	20.4	15.92	10.44	22.44
13.96	13.92	11.88	10.8	14.52	12.88	21.84	13.84	19.56	10.44	14.8
13.96	13.92	11.88	10.8	22.56	20.6	12.88	13.84	19.56	10.44	14.8
13.96	13.92	22.8	10.8	22.56	20.6	12.88	20.4	15.92	24	14.8
13.96	19.48	11.88	10.8	14.52	12.88	12.88	20.4	15.92	10.44	20.84
13.96	19.48	11.88	10.8	14.52	12.88	16.16	9.4	20.68	10.44	20.84
19.24	11.04	11.88	10.8	14.52	12.88	16.16	9.4	19.56	10.44	20.84
22.68	11.04	11.88	10.8	14.52	16.76	16.16	9.4	19.56	10.44	22.44
22.68	11.04	16.72	10.8	22.8	16.76	16.16	9.4	19.56	10.44	13.6
22.68	11.04	16.72	10.8	22.56	16.76	11.32	9.4	19.56	9.8	13.6
13.12	11.04	22.8	25.04	22.56	20.6	11.32	9.4	21.72	9.8	13.6
20.72	11.04	11.72	11.24	16.04	20.6	11.32	9.4	21.72	9.8	13.6
20.72	11.04	11.72	19.88	16.04	12.48	11.32	24.48	14.16	22.04	20.24
16.56	22.4	11.72	15	17	12.48	24.64	24.48	14.16	15.8	20.24
16.56	22.4	22.68	15	17	12.48	24.64	24.48	14.16	9.8	20.24
16.56	22.4	17.56	11.24	17	12.48	24.64	16.04	14.16	9.8	13.6
13.12	15.76	17.56	11.24	17	23.8	11.32	9.4	14.16	9.8	13.6
13.12	11.04	17.56	19.88	17	23.8	11.32	9.4	21.72	9.8	20.24
13.12	11.04	11.72	15	17	12.48	11.32	9.4	21.72	22.04	20.24
20.72	22.4	11.72	15	17	23.8	11.32	9.4	21.72	22.04	20.24
20.72	22.4	22.68	15	17	19.12	24.64	9.4	18.24	15.8	20.24
16.56	15.76	22.68	15	17	19.12	18.28	24.48	18.24	15.8	17.04
16.56	15.76	17.56	15	18.2	19.12	18.28	16.04	18.24	15.8	17.04
14	previous	instance:	data/P-n76-k4.vrp							
923	923	923	923	923	923	923	923	923	923	923
928	923	923	928	923	923	928	928	923	928	923
928	923	923	928	928	928	935	935	923	928	923
935	928	923	935	935	928	937	937	923	939	935
935	928	923	935	944	928	939	939	928	944	935
935	935	928	937	944	935	944	939	928	944	935
937	937	935	944	947	937	944	944	928	944	937
939	939	935	944	947	939	948	944	935	947	937
939	944	935	944	947	939	955	947	935	947	944
944	947	937	947	947	939	955	947	937	948	944
944	948	939	947	948	944	955	959	939	955	947
944	955	939	948	955	944	959	959	939	959	948
955	955	944	948	959	947	959	959	944	959	948
959	955	947	955	959	948	959	984	947	959	959
959	955	947	955	959	959	997	984	947	959	959
959	955	948	959	959	959	997	984	948	959	959
959	959	955	959	959	959	997	984	948	984	959
959	959	959	959	984	984	1001	997	948	984	959
984	959	997	959	1001	997	1001	1001	955	984	959
984	959	1001	984	1001	997	1001	1001	955	984	984
997	984	1001	1001	1001	1001	1020	1001	959	997	997
1001	1001	1020	1001	1001	1001	1020	1001	997	997	1001
1001	1001	1020	1020	1001	1001	1020	1001	997	1001	1001
1020	1001	1020	1020	1020	1020	1020	1001	1001	1001	1001
1020	1001	1020	1020	1020	1020	1020	1020	1020	1001	1020
20.84	24.16	16.16	20.68	27.84	21.28	18.8	25.88	16.28	24.88	19.72
21.92	24.16	16.16	21.68	27.84	21.28	19.84	26.56	16.28	25.6	19.72
21.92	24.16	16.16	21.68	29.12	21.76	18.8	25.88	16.28	25.6	19.72
20.84	25.6	16.16	20.68	27.84	21.76	19.84	26.56	16.28	31.32	19.72
20.84	25.6	16.16	20.68	23.28	21.76	37	29.68	17.2	23.6	19.72
20.84	24.16	17.68	21.68	23.28	21.28	22.56	29.68	17.2	23.6	19.72
21.92	25.6	16.16	22.68	28.16	21.76	22.56	25.44	17.2	23.6	20.96
34.72	32.48	16.16	22.68	28.16	33.16	21.64	25.44	16.28	31.32	20.96
34.72	20.16	16.16	22.68	28.16	33.16	22.56	29.68	16.28	31.32	24.56
23.2	32.48	17.68	35.04	28.16	33.16	22.56	29.68	17.2	25.48	24.56
23.2	27.04	36.4	35.04	29.52	26.48	22.56	20.8	36.76	23.6	35.68
23.2	20.16	36.4	22.8	23.28	26.48	24.64	20.8	36.76	21.76	22.04
23.2	20.16	27	22.8	18.16	33.16	24.64	20.8	26.76	21.76	22.04
23.2	20.16	36.4	22.68	18.16	22.76	24.64	26.44	36.76	21.76	22.24
23.2	20.16	36.4	22.68	18.16	24.96	18.08	26.44	36.76	21.76	22.24
23.2	20.16	19	24.24	18.16	24.96	18.08	26.44	18.2	21.76	22.24
23.2	20.24	27	24.24	18.16	24.96	18.08	26.44	18.2	25.48	22.24
23.2	20.24	28.96	24.24	29.52	22.76	24.64	25.16	18.2	25.48	22.24
23.32	20.24	16.52	24.24	18.16	20.72	24.64	20.8	26.76	25.48	22.24
23.32	20.24	28.96	22.8	18.16	20.72	24.64	20.8	26.76	25.48	22.04
20.92	27.04	28.96	24.24	18.16	24.96	18.08	20.8	30.24	24.4	19.8
23.2	20.24	16.52	24.24	18.16	24.96	18.08	20.8	16.8	24.4	22.24
23.2	20.24	16.52	20.8	18.16	24.96	18.08	20.8	16.8	21.76	22.24
20.92	20.24	16.52	20.8	27.44	20.72	18.08	20.8	30.24	21.76	22.24
20.92	20.24	16.52	20.8	27.44	20.72	18.08	25.16	16.8	21.76	19.8
15	previous	instance:	data/P-n101-k4.vrp							
